results_rootrelaxation/bin018_060_026.srr.sol
solution status: optimal solution found
objective value:                                    0
_var2776_                          0.0229532381596736 	(obj:0)
_var2779_                            0.10261781068375 	(obj:0)
_var2814_                            0.24264278051726 	(obj:0)
_var2844_                          0.0233672935427272 	(obj:0)
_var2850_                           0.086380236646532 	(obj:0)
_var2855_                          0.0896129877752325 	(obj:0)
_var2861_                           0.023550567447604 	(obj:0)
_var2875_                           0.168047313088727 	(obj:0)
_var2895_                           0.157234725784347 	(obj:0)
_var2910_                           0.324202077897201 	(obj:0)
_var2914_                         0.00955809470886543 	(obj:0)
_var2915_                          0.0541485425826245 	(obj:0)
_var2922_                           0.263982856527113 	(obj:0)
_var2926_                           0.199701286875681 	(obj:0)
_var2928_                           0.229623685532433 	(obj:0)
_var2929_                           0.143913255608804 	(obj:0)
_var2934_                          0.0377189980132351 	(obj:0)
_var2936_                         0.00355094660331082 	(obj:0)
_var2939_                           0.192556327133456 	(obj:0)
_var2953_                           0.085816611639344 	(obj:0)
_var2963_                          0.0559808810731526 	(obj:0)
_var2967_                           0.357376196303066 	(obj:0)
_var2976_                           0.260498501479413 	(obj:0)
_var2980_                          0.0294140379764869 	(obj:0)
_var2981_                          0.0269763021068861 	(obj:0)
_var2983_                          0.0595294277823947 	(obj:0)
_var2985_                             0.1397758660949 	(obj:0)
_var2991_                          0.0310603563169261 	(obj:0)
_var2996_                         0.00203067483840942 	(obj:0)
_var3011_                         0.000782342492775591 	(obj:0)
_var3012_                           0.107956705808235 	(obj:0)
_var3013_                           0.292581760794815 	(obj:0)
_var3022_                           0.318312339254317 	(obj:0)
_var3034_                           0.190757416067487 	(obj:0)
_var3035_                          0.0335831946329889 	(obj:0)
_var3040_                           0.120490491481649 	(obj:0)
_var3043_                           0.245732627832919 	(obj:0)
_var3044_                          0.0352055968715411 	(obj:0)
_var3047_                          0.0871413237423494 	(obj:0)
_var3050_                           0.220173826431029 	(obj:0)
_var3053_                          0.0846784169464094 	(obj:0)
_var3054_                           0.224048685943561 	(obj:0)
_var3057_                          0.0363421292262095 	(obj:0)
_var3067_                           0.222458878519978 	(obj:0)
_var3072_                           0.282978711696718 	(obj:0)
_var3077_                           0.101180713860676 	(obj:0)
_var3085_                           0.132303583269653 	(obj:0)
_var3087_                          0.0734232789723554 	(obj:0)
_var3089_                          0.0878477734775777 	(obj:0)
_var3093_                           0.414600465616188 	(obj:0)
_var3096_                           0.174695980436005 	(obj:0)
_var3097_                          0.0873258404448134 	(obj:0)
_var3099_                           0.122268790656258 	(obj:0)
_var3100_                           0.308145139512825 	(obj:0)
_var3104_                           0.233872527986193 	(obj:0)
_var3105_                           0.196997470985914 	(obj:0)
_var3106_                           0.216620050575088 	(obj:0)
_var3107_                           0.339152997886799 	(obj:0)
_var3108_                          0.0804322766908757 	(obj:0)
_var3115_                           0.070472029121624 	(obj:0)
_var3118_                           0.134327023678488 	(obj:0)
_var3119_                           0.122865546750681 	(obj:0)
_var3120_                           0.165348845278002 	(obj:0)
_var3121_                           0.281327266587188 	(obj:0)
_var3122_                            0.19489278763172 	(obj:0)
_var3125_                          0.0406120147587867 	(obj:0)
_var3126_                          0.0602873644416434 	(obj:0)
_var3128_                           0.110769087436524 	(obj:0)
_var3130_                          0.0966090872070599 	(obj:0)
_var3131_                            0.14641051758033 	(obj:0)
_var3132_                            0.12630689691344 	(obj:0)
_var3133_                           0.175278231651736 	(obj:0)
_var3135_                          0.0498107073895217 	(obj:0)
_var3136_                           0.027230661929203 	(obj:0)
_var3138_                          0.0479963235938408 	(obj:0)
_var3139_                            0.22050883793142 	(obj:0)
_var3142_                           0.141612065406716 	(obj:0)
_var3143_                         0.00747376049642315 	(obj:0)
_var3144_                         0.00256572694333115 	(obj:0)
_var3146_                          0.0925138663904956 	(obj:0)
_var3147_                           0.240007781767357 	(obj:0)
_var3149_                          0.0717671246098273 	(obj:0)
_var3150_                          0.0799012105521092 	(obj:0)
_var3151_                            0.12680806209253 	(obj:0)
_var3153_                          0.0515781056322224 	(obj:0)
_var3158_                           0.152524598238428 	(obj:0)
_var3159_                           0.156052612848908 	(obj:0)
_var3160_                          0.0452868721922227 	(obj:0)
_var3161_                          0.0547355054876285 	(obj:0)
_var3162_                           0.263439802896187 	(obj:0)
_var3163_                           0.232085598629291 	(obj:0)
_var3165_                         0.000478684265448588 	(obj:0)
_var3168_                            0.20359310676463 	(obj:0)
_var3169_                           0.210381217033864 	(obj:0)
_var3170_                         0.00113431659975671 	(obj:0)
_var3176_                          0.0971093348147902 	(obj:0)
_var3177_                           0.282084078096536 	(obj:0)
_var3178_                            0.10819374520892 	(obj:0)
_var3179_                            0.11895463828003 	(obj:0)
_var3180_                          0.0973951727145595 	(obj:0)
_var3181_                           0.103395565281028 	(obj:0)
_var3182_                         0.00428594245738621 	(obj:0)
_var3184_                          0.0605919372038338 	(obj:0)
_var3191_                           0.118990401055814 	(obj:0)
_var3192_                           0.178829720431095 	(obj:0)
_var3193_                            0.06133219954505 	(obj:0)
_var3194_                           0.110187430777956 	(obj:0)
_var3195_                         0.00995516961291529 	(obj:0)
_var3196_                          0.0935550084303997 	(obj:0)
_var3197_                             0.1506353448923 	(obj:0)
_var3199_                           0.237915175016653 	(obj:0)
_var3200_                          0.0214024268515598 	(obj:0)
_var3202_                           0.169861342008019 	(obj:0)
_var3204_                           0.186839835276502 	(obj:0)
_var3205_                            0.11246974449052 	(obj:0)
_var3208_                          0.0603219265667537 	(obj:0)
_var3210_                          0.0593123897168461 	(obj:0)
_var3211_                          0.0191382726121515 	(obj:0)
_var3212_                          0.0302927666422958 	(obj:0)
_var3214_                          0.0541555888870317 	(obj:0)
_var3215_                          0.0167606428513666 	(obj:0)
_var3216_                          0.0501331730101556 	(obj:0)
_var3217_                          0.0794250502369531 	(obj:0)
_var3219_                          0.0339361328376425 	(obj:0)
_var3221_                          0.0193671076202497 	(obj:0)
_var3222_                          0.0885792387781654 	(obj:0)
_var3223_                          0.0731852825004057 	(obj:0)
_var3225_                           0.143873578385394 	(obj:0)
_var3227_                          0.0740182828646485 	(obj:0)
_var3229_                          0.0964231842582862 	(obj:0)
_var3230_                          0.0601492452623192 	(obj:0)
_var3231_                           0.077510330135368 	(obj:0)
_var3235_                            0.10554583034327 	(obj:0)
_var3236_                          0.0289283772703049 	(obj:0)
_var3237_                          0.0552529082624821 	(obj:0)
_var3238_                           0.039609634103954 	(obj:0)
_var3240_                          0.0280220393054727 	(obj:0)
_var3241_                          0.0324169979274146 	(obj:0)
_var3243_                         0.00656092813263301 	(obj:0)
_var3244_                            0.13268620264552 	(obj:0)
_var3246_                           0.126540927733581 	(obj:0)
_var3247_                         0.00621887600094514 	(obj:0)
_var3250_                          0.0412918835197774 	(obj:0)
_var3251_                          0.0192490273585911 	(obj:0)
_var3253_                           0.101751537407161 	(obj:0)
_var3254_                          0.0980373439757715 	(obj:0)
_var3255_                          0.0120180117015181 	(obj:0)
_var3258_                          0.0447549829334375 	(obj:0)
_var3260_                         0.00461941605672771 	(obj:0)
_var3262_                          0.0190030377224985 	(obj:0)
_var3263_                          0.0360191644046952 	(obj:0)
